$rem
   JOBTYPE  sp
   EXCHANGE   omegaB97X-D
   BASIS   6-311+G(2df,2pd)
   max_scf_cycles   250
   geom_opt_max_cycles   1500
   basis2 6-31G*
   scf_algorithm rca_diis
   SYM_IGNORE  TRUE
   print_input   true
   geom_opt_dmax   80
   pop_mulliken false
   XC_GRID 000075000302
$end

$molecule
0 1
C       1.2008770713     -0.4045218405     0.2668201745
C       0.0000014135     0.0000093587     -0.5799213796
H       2.0730240657     -0.5352123045     -0.3728173281
H       1.0345008427     -1.3487473750     0.7943364519
H       1.4456179671     0.3577639306     1.0071914695
C       -1.2008774852     0.4045164548     0.2668272872
H       -0.2054690929     -0.8498793488     -1.2350755567
H       0.2054739443     0.8499174645     -1.2350504562
H       -1.0345325252     1.3487616807     0.7943169513
H       -1.4455782055     -0.3577631715     1.0072182551
H       -2.0730380564     0.5351558170     -0.3728008500
