$rem
   JOBTYPE  sp
   EXCHANGE   omegaB97X-D
   BASIS   6-311+G(2df,2pd)
   max_scf_cycles   250
   geom_opt_max_cycles   1500
   basis2 6-31G*
   scf_algorithm rca_diis
   SYM_IGNORE  TRUE
   print_input   true
   geom_opt_dmax   80
   pop_mulliken false
   XC_GRID 000075000302
$end

$molecule
0 1
C       1.2636283161     0.1763625249     0.1503263634
C       -0.0000013864     -0.5439814227     -0.3047247066
H       2.2095993816     -0.2425323232     -0.1904159969
H       1.2510642619     0.1230405022     1.2434659359
H       1.2430006176     1.2313631549     -0.1247958227
C       -1.2636270748     0.1763711388     0.1503228373
H       -0.0000049940     -1.6219015155     -0.1227966047
H       0.0000005990     -0.4106271141     -1.3885740013
H       -2.2095990105     -0.2425505903     -0.1903854400
H       -1.2430168841     1.2313606664     -0.1248423429
H       -1.2510438870     0.1230956447     1.2434647973
