$rem
   JOBTYPE  sp
   EXCHANGE   omegaB97X-D
   BASIS   6-311+G(2df,2pd)
   max_scf_cycles   250
   geom_opt_max_cycles   1500
   basis2 6-31G*
   scf_algorithm rca_diis
   SYM_IGNORE  TRUE
   print_input   true
   geom_opt_dmax   80
   pop_mulliken false
   XC_GRID 000075000302
$end

$molecule
0 1
C       1.2505209078     -0.1190428518     0.3088049215
C       -0.0518291091     -0.4065528684     -0.4287207263
H       1.9564400931     0.4065334373     -0.3374896172
H       1.7281469429     -1.0462364107     0.6319609915
H       1.0841922719     0.4971451950     1.1930226550
C       -1.2159778953     0.4242132125     0.0978863015
H       -0.2932084953     -1.4685664956     -0.3413898567
H       0.0825057047     -0.2107060366     -1.4951923913
H       -1.3897616303     0.2240476572     1.1570913295
H       -2.1399013666     0.2074821825     -0.4392505397
H       -1.0111274844     1.4916836447     -0.0056780489
